results/x-long/X-n190-k8.vrp_seed-4.vrp.sol
Route #1: 37 29 83 182 160 184 1 165 88 44 127 172
Route #2: 131 118 99 45 149 139 72 133 156 129 108 103 34 128 163 4 110 168 120 13 171 66 63 57 19 105
Route #3: 170 166 157 173 132 134 161 74 111 113 91 59 62 179 178 50 94 144 115 145 92
Route #4: 14 16 67 51 93 75 121 158 164 23 107 33 162 7 155 17 79 60 116 82 122 11 175 117 26 49 119 106
Route #5: 102 35 8 100 42 90 96 3 15 27 187 124 140 189 154 53 20 65 114 9 55 69 135 46 31
Route #6: 10 43 58 28 138 85 80 150 30 39 36 22 77 38 2 6 109 89 104 142 159
Route #7: 81 68 21 56 130 48 54 126 76 40 32 61 180 153 84 18 185 70 141 98 148 167 136 183 25 64 188
Route #8: 73 112 169 78 147 86 125 137 151 174 181 41 152 87 186 146 177 123 71 52 101 47 5 176 12 24 97 143 95
Cost 16984.000000